proyfinal/src/viki/013/andrea/andrea-localstore/experimentInOfficeAgust.take6/worker_10/91f13683-2cb0-486f-8a77-3060204a2f10.als.cnf.out
Reading from standard input... Use '--help' for help.
============================[ Problem Statistics ]=============================
|                                                                             |
|  Number of variables:         87638                                         |
|  Number of clauses:          161767                                         |
|  Parse time:                   0.04 s                                       |
|                                                                             |
============================[ Search Statistics ]==============================
| Conflicts |          ORIGINAL         |          LEARNT          | Progress |
|           |    Vars  Clauses Literals |    Limit  Clauses Lit/Cl |          |
===============================================================================
|       100 |   65107   115121   287365 |    42211      100      7 | 25.709 % |
|       250 |   65089   115047   287194 |    46432      249     19 | 25.730 % |
|       475 |   65089   115047   287194 |    51075      474     49 | 25.730 % |
|       812 |   65089   115047   287194 |    56182      811     58 | 25.730 % |
|      1318 |   65088   115003   287104 |    61801     1314     61 | 25.731 % |
|      2077 |   56399    88509   222168 |    67981     2052     56 | 35.645 % |
|      3216 |   56326    88124   221312 |    74779     3177     91 | 35.729 % |
|      4924 |   56255    87823   220611 |    82257     4881     88 | 35.810 % |
|      7486 |   56001    86886   218361 |    90483     7427     89 | 36.100 % |
|     11330 |   55775    86178   216652 |    99531    11255     93 | 36.358 % |
|     17096 |   55276    84299   212148 |   109484    16931     89 | 36.927 % |
===============================================================================
restarts              : 67
conflicts             : 19737          (6889 /sec)
decisions             : 86383          (0.00 % random) (30151 /sec)
propagations          : 30420362       (10617798 /sec)
conflict literals     : 1665321        (34.11 % deleted)
Memory used           : 44.29 MB
CPU time              : 2.86503 s

INDETERMINATE
